57
120
84	1
83	3
82	1
80	2
79	1
78	2
77	1
76	1
75	1
73	1
72	2
71	2
70	2
67	3
66	1
65	1
64	3
63	2
61	1
59	1
58	2
57	2
56	2
55	2
54	2
51	3
50	2
47	1
46	2
44	2
43	2
42	2
41	2
40	2
38	1
37	4
36	2
35	3
34	2
33	1
32	1
31	3
30	1
29	1
28	1
27	2
26	1
24	2
22	1
21	1
19	2
18	1
17	3
16	3
15	2
13	1
12	1
